nNurses = 168;
nHours = 40;
minHours = 6;
maxHours = 12;
maxConsec = 6;
maxPresence = 9;
demand = [33, 34, 36, 40, 36, 38, 37, 36, 38, 33, 33, 35, 31, 32, 32, 36, 36, 39, 37, 35, 30, 34, 37, 38, 38, 34, 29, 30, 27, 25, 22, 22, 20, 19, 17, 20, 18, 13, 15, 12];
